131
1000000
47640
218738
164422
122246
246206
137796
54729
179376
11128
57387
1121
39238
210551
141432
32715
44874
2323
135221
109420
114044
65282
86860
16244
71021
74228
171444
146723
3497
248294
188135
158335
44722
85387
152574
66758
229273
140575
10487
100588
124232
172402
188996
57409
60631
77730
79313
229371
5075
189573
58623
188502
2970
134566
122837
94123
8802
158970
239261
83229
59994
76040
187262
80600
57371
173169
134350
171871
144253
114457
127558
54880
115464
242005
55
118373
220006
107169
14855
156804
222777
77433
174348
132365
173951
233231
42851
82572
241149
4950
135131
24966
165551
156495
179286
162991
18164
87171
16272
111074
217896
23491
123946
30376
116841
136933
127853
92916
33595
31661
146356
13056
170765
20998
2054
231377
1584
172118
161996
157763
187526
198046
69188
235163
113012
53888
82252
132087
207902
184515
77884
238049
